Maximize
 + 2.300000 x1 + 4.500000 x2 + 1.500000 x3 + 5.400000 x4 + 2.900000 x5 + 3.200000 x6
Subject To
 + 30.000000 y1,1 + 70.000000 y2,1 + 20.000000 y3,1 + 80.000000 y4,1 + 35.000000 y5,1 + 40.000000 y6,1 <= 100.000000
 + 30.000000 y1,2 + 70.000000 y2,2 + 20.000000 y3,2 + 80.000000 y4,2 + 35.000000 y5,2 + 40.000000 y6,2 <= 60.000000
 + y1,1 + y1,2 - x1 = 0
 + y2,1 + y2,2 - x2 = 0
 + y3,1 + y3,2 - x3 = 0
 + y4,1 + y4,2 - x4 = 0
 + y5,1 + y5,2 - x5 = 0
 + y6,1 + y6,2 - x6 = 0
Binary
 x1
 y1,1
 y1,2
 x2
 y2,1
 y2,2
 x3
 y3,1
 y3,2
 x4
 y4,1
 y4,2
 x5
 y5,1
 y5,2
 x6
 y6,1
 y6,2
End
display solution variables -